ants/tsp/Python/m6.tsp
NAME: m6
TYPE: TSP
DIMENSION: 6
EDGE_WEIGHT_TYPE: EXPLICIT
EDGE_WEIGHT_FORMAT: FULL MATRIX
EDGE_WEIGHT_SECTION
0 353 582 372 641 559
353 0 231 99 426 502
582 231 0 331 326 750
372 99 331 0 269 403
641 426 326 269 0 424
559 502 750 403 424 0
EOF
