ants/m6
d
6
0 0 353 582 372 641 559
1 353 0 231 99 426 502
2 582 231 0 331 326 750
3 372 99 331 0 269 403
4 641 426 326 269 0 424
5 559 502 750 403 424 0
